3495.17
0 3 9 7 8 13 5 66 1 2 4 6 0
0 11 14 19 15 22 105 16 18 10 12 17 0
0 25 145 24 116 23 190 28 21 20 29 30 27 26 0
0 36 37 59 34 35 38 31 39 32 49 41 33 0
0 43 42 53 48 47 154 45 46 52 50 40 44 0
0 55 56 57 51 58 64 62 61 54 60 0
0 67 68 74 63 73 72 75 71 69 78 70 123 65 0
0 85 84 77 80 92 89 82 88 79 83 87 81 76 86 0
0 106 135 97 100 102 99 103 98 101 94 93 91 90 96 95 0
0 111 108 109 110 118 107 117 159 104 115 113 114 112 0
0 130 129 119 134 132 128 124 122 121 120 191 125 126 127 0
0 149 133 131 146 144 138 155 140 142 137 143 141 136 139 0
0 162 148 147 160 158 156 153 150 168 151 157 152 0
0 172 173 171 166 167 177 170 164 165 163 161 169 0
0 187 181 182 183 184 174 179 180 178 176 175 188 0
0 186 199 185 192 197 196 195 198 194 193 189 0
0 0
